====================================================================================================================
File name: 100_10_26_15.def
Creation date: Mon Nov 24 20:40:29 CET 2014
Website: http://imopse.ii.pwr.edu.pl/
Reference:
Myszkowski P. B., Skowronski M. E., Olech L., Oslizlo K.,
Hybrid Ant Colony Optimization in solving Multi-Skill Resource-Constrained Project Scheduling Problem,
Soft Computing, DOI: DOI 10.1007/s00500-014-1455-x
====================================================================================================================
General characteristics:
Tasks: 100
Resources: 10
Precedence relations: 26
Number of skill types: 15
====================================================================================================================
ResourceID 	 Salary 	 Skills
1	 	 	56.2	 	 Q4: 1 	  Q0: 0 	  Q13: 2 	  Q6: 0 	  Q14: 1 	  Q9: 2
2	 	 	33.8	 	 Q4: 0 	  Q2: 1 	  Q6: 1 	  Q0: 1 	  Q3: 1 	  Q1: 0
3	 	 	37.2	 	 Q5: 2 	  Q10: 2 	  Q8: 2 	  Q7: 0 	  Q9: 0 	  Q14: 2
4	 	 	85.2	 	 Q3: 2 	  Q13: 1 	  Q8: 1 	  Q14: 0 	  Q7: 0 	  Q4: 1
5	 	 	27.4	 	 Q5: 2 	  Q12: 2 	  Q4: 0 	  Q11: 0 	  Q9: 2 	  Q0: 0
6	 	 	91.4	 	 Q11: 1 	  Q14: 2 	  Q13: 1 	  Q4: 0 	  Q0: 1 	  Q3: 2
7	 	 	10.1	 	 Q7: 1 	  Q3: 0 	  Q5: 0 	  Q13: 1 	  Q9: 1 	  Q10: 2
8	 	 	87.8	 	 Q13: 2 	  Q14: 2 	  Q9: 2 	  Q4: 1 	  Q11: 0 	  Q10: 1
9	 	 	56.1	 	 Q0: 2 	  Q12: 1 	  Q2: 2 	  Q10: 1 	  Q11: 1 	  Q1: 0
10	 	 	74.0	 	 Q6: 0 	  Q13: 0 	  Q7: 0 	  Q10: 0 	  Q14: 0 	  Q4: 0
====================================================================================================================
TaskID 	 Duration 	 Skill 	 Predecessor IDs
1	 	 	10	 Q14: 0
2	 	 	15	 Q10: 0
3	 	 	9	 Q10: 1
4	 	 	39	 Q11: 0
5	 	 	32	 Q14: 2
6	 	 	39	 Q1: 0
7	 	 	16	 Q0: 1
8	 	 	10	 Q5: 0
9	 	 	23	 Q3: 2
10	 	 	35	 Q12: 1
11	 	 	27	 Q5: 0
12	 	 	30	 Q13: 2	 	6
13	 	 	13	 Q13: 0
14	 	 	40	 Q13: 2
15	 	 	20	 Q10: 1
16	 	 	13	 Q9: 2
17	 	 	10	 Q6: 0
18	 	 	25	 Q3: 1
19	 	 	9	 Q10: 2
20	 	 	10	 Q7: 0
21	 	 	38	 Q11: 1
22	 	 	31	 Q2: 2
23	 	 	26	 Q10: 0
24	 	 	28	 Q7: 0
25	 	 	31	 Q6: 0
26	 	 	26	 Q1: 0
27	 	 	20	 Q11: 0
28	 	 	15	 Q0: 1
29	 	 	22	 Q10: 1
30	 	 	14	 Q12: 2
31	 	 	31	 Q9: 0
32	 	 	20	 Q14: 2
33	 	 	9	 Q5: 0
34	 	 	36	 Q14: 0
35	 	 	17	 Q12: 1
36	 	 	10	 Q6: 0
37	 	 	38	 Q14: 1
38	 	 	35	 Q12: 1
39	 	 	23	 Q14: 1
40	 	 	23	 Q1: 0
41	 	 	32	 Q6: 0
42	 	 	31	 Q9: 2	 	4
43	 	 	25	 Q5: 2	 	24
44	 	 	37	 Q12: 1	 	41	7
45	 	 	11	 Q10: 2
46	 	 	26	 Q8: 1
47	 	 	19	 Q3: 2
48	 	 	17	 Q14: 0
49	 	 	39	 Q11: 0
50	 	 	16	 Q9: 1
51	 	 	22	 Q7: 1	 	28
52	 	 	20	 Q12: 2
53	 	 	13	 Q0: 1
54	 	 	34	 Q9: 0
55	 	 	30	 Q7: 0	 	30	31
56	 	 	23	 Q12: 1
57	 	 	30	 Q0: 2	 	4
58	 	 	25	 Q2: 2
59	 	 	20	 Q6: 1	 	36
60	 	 	15	 Q13: 2
61	 	 	22	 Q14: 0
62	 	 	17	 Q3: 2	 	19
63	 	 	37	 Q9: 1
64	 	 	14	 Q2: 1
65	 	 	26	 Q7: 1
66	 	 	34	 Q13: 0	 	65	36
67	 	 	15	 Q4: 0	 	28
68	 	 	34	 Q14: 0
69	 	 	22	 Q12: 1
70	 	 	18	 Q10: 2
71	 	 	11	 Q14: 1
72	 	 	16	 Q11: 0
73	 	 	16	 Q10: 1
74	 	 	27	 Q2: 1
75	 	 	26	 Q0: 2
76	 	 	40	 Q3: 2
77	 	 	23	 Q3: 1	 	75
78	 	 	23	 Q8: 1	 	69
79	 	 	32	 Q12: 2
80	 	 	35	 Q7: 0	 	13	6
81	 	 	28	 Q11: 0
82	 	 	22	 Q13: 0	 	15
83	 	 	11	 Q3: 0
84	 	 	21	 Q3: 0
85	 	 	34	 Q13: 1
86	 	 	12	 Q5: 0	 	81
87	 	 	18	 Q9: 0	 	50
88	 	 	13	 Q2: 2
89	 	 	9	 Q8: 2	 	43
90	 	 	34	 Q12: 2	 	27	78	57
91	 	 	24	 Q5: 0
92	 	 	15	 Q3: 0
93	 	 	26	 Q8: 1
94	 	 	19	 Q10: 1
95	 	 	38	 Q1: 0
96	 	 	19	 Q2: 1
97	 	 	30	 Q0: 2
98	 	 	11	 Q5: 0	 	33
99	 	 	27	 Q11: 1
100	 	 	16	 Q4: 0
====================================================================================================================
